c FILE /home/rafael/Documents/HappySet/MIHS/inputs/happygen/output/graph_d_regular_k3_p0.4_v50_20241127_082603.txt
c SOURCE This is a d-regular graph formed for the happy graph colouring problem.
c DESCRIPTION It was generated using the problem generator of Rhyd Lewis
c
c GRAPH STATS
c Seed                             = 131958883
c Number of Nodes                  = 50
c Number of colours k              = 3
c Number of pre-assignments        = 20
c Degree of all vertices           = 6
c Density                          = 0.122449
c 
c The degrees of nodes 1 to 50, respectively, are as follows 
c [6, 6, 6, 6, 6, 6, 6, 6, 6, 6, 6, 6, 6, 6, 6, 6, 6, 6, 6, 6, 6, 6, 6, 6, 6, 6, 
c  6, 6, 6, 6, 6, 6, 6, 6, 6, 6, 6, 6, 6, 6, 6, 6, 6, 6, 6, 6, 6, 6, 6, 6] 
c  
p edge 50 150 3
e 1 24
e 1 30
e 1 36
e 1 42
e 1 45
e 1 48
e 2 16
e 2 18
e 2 36
e 2 43
e 2 49
e 2 50
e 3 4
e 3 15
e 3 26
e 3 31
e 3 36
e 3 38
e 4 13
e 4 14
e 4 19
e 4 29
e 4 30
e 5 9
e 5 13
e 5 27
e 5 35
e 5 37
e 5 41
e 6 10
e 6 14
e 6 16
e 6 17
e 6 25
e 6 27
e 7 24
e 7 28
e 7 40
e 7 45
e 7 46
e 7 50
e 8 16
e 8 21
e 8 22
e 8 28
e 8 33
e 8 47
e 9 25
e 9 27
e 9 36
e 9 45
e 9 49
e 10 12
e 10 14
e 10 18
e 10 21
e 10 43
e 11 12
e 11 23
e 11 25
e 11 29
e 11 35
e 11 50
e 12 32
e 12 34
e 12 39
e 12 48
e 13 42
e 13 45
e 13 48
e 13 49
e 14 40
e 14 44
e 14 45
e 15 19
e 15 25
e 15 35
e 15 48
e 15 49
e 16 25
e 16 33
e 16 40
e 17 27
e 17 33
e 17 35
e 17 36
e 17 47
e 18 20
e 18 30
e 18 39
e 18 49
e 19 21
e 19 26
e 19 36
e 19 48
e 20 21
e 20 23
e 20 31
e 20 32
e 20 34
e 21 41
e 21 47
e 22 23
e 22 24
e 22 26
e 22 35
e 22 40
e 23 29
e 23 35
e 23 38
e 24 34
e 24 40
e 24 44
e 25 47
e 26 27
e 26 32
e 26 37
e 27 31
e 28 37
e 28 39
e 28 41
e 28 46
e 29 31
e 29 38
e 29 44
e 30 32
e 30 34
e 30 43
e 31 46
e 31 47
e 32 39
e 32 42
e 33 38
e 33 40
e 33 50
e 34 37
e 34 38
e 37 39
e 37 46
e 38 44
e 39 45
e 41 42
e 41 43
e 41 47
e 42 43
e 42 44
e 43 44
e 46 49
e 46 50
e 48 50
n 2 3
n 5 3
n 8 3
n 9 3
n 10 3
n 15 3
n 17 3
n 20 3
n 22 3
n 24 3
n 29 1
n 30 2
n 33 3
n 35 3
n 36 3
n 39 3
n 40 3
n 41 3
n 45 3
n 46 3
